
(set-logic HORN)
(declare-fun Z_2152 () Int)
(declare-fun S_502 (Int) Int)
(declare-datatypes ((Bool_361 0)) (((false_361) (true_361))))
(declare-fun diseqBool_165 (Bool_361 Bool_361) Bool)
(declare-fun isfalse_165 (Bool_361) Bool)
(declare-fun istrue_165 (Bool_361) Bool)
(assert (isfalse_165 false_361))
(assert (istrue_165 true_361))
(assert (diseqBool_165 false_361 true_361))
(assert (diseqBool_165 true_361 false_361))
(declare-fun and_361 (Bool_361 Bool_361 Bool_361) Bool)
(declare-fun or_368 (Bool_361 Bool_361 Bool_361) Bool)
(declare-fun hence_361 (Bool_361 Bool_361 Bool_361) Bool)
(declare-fun not_366 (Bool_361 Bool_361) Bool)
(assert (and_361 false_361 false_361 false_361))
(assert (and_361 false_361 true_361 false_361))
(assert (and_361 false_361 false_361 true_361))
(assert (and_361 true_361 true_361 true_361))
(assert (or_368 false_361 false_361 false_361))
(assert (or_368 true_361 true_361 false_361))
(assert (or_368 true_361 false_361 true_361))
(assert (or_368 true_361 true_361 true_361))
(assert (hence_361 true_361 false_361 false_361))
(assert (hence_361 false_361 true_361 false_361))
(assert (hence_361 true_361 false_361 true_361))
(assert (hence_361 true_361 true_361 true_361))
(assert (not_366 true_361 false_361))
(assert (not_366 false_361 true_361))
(declare-fun diseqInt (Int Int) Bool)
(declare-fun projS_217 (Int Int) Bool)
(declare-fun isZ_469 (Int) Bool)
(declare-fun isS_469 (Int) Bool)
(assert (forall ((x_56333 Int))
	(projS_217 x_56333 (S_502 x_56333))))
(assert (isZ_469 Z_2152))
(assert (forall ((x_56335 Int))
	(isS_469 (S_502 x_56335))))
(assert (forall ((x_56336 Int))
	(diseqInt Z_2152 (S_502 x_56336))))
(assert (forall ((x_56337 Int))
	(diseqInt (S_502 x_56337) Z_2152)))
(assert (forall ((x_56338 Int) (x_56339 Int))
	(=> (diseqInt x_56338 x_56339) (diseqInt (S_502 x_56338) (S_502 x_56339)))))
(declare-fun even_5 (Bool_361 Int) Bool)
(assert (forall ((x_56318 Bool_361) (z_2153 Int))
	(=> (even_5 x_56318 z_2153) (even_5 x_56318 (S_502 (S_502 z_2153))))))
(assert (even_5 false_361 (S_502 Z_2152)))
(assert (even_5 true_361 Z_2152))
(declare-fun x_56315 (Int Int Int) Bool)
(assert (forall ((x_56323 Int) (z_2154 Int) (y_2391 Int))
	(=> (x_56315 x_56323 z_2154 y_2391) (x_56315 (S_502 x_56323) (S_502 z_2154) y_2391))))
(assert (forall ((x_56324 Int))
	(x_56315 x_56324 Z_2152 x_56324)))
(assert (forall ((x_56325 Int) (x_56326 Bool_361) (x_56327 Int) (x_56328 Bool_361) (x_56317 Int) (y_2392 Int))
	(=> (and true (diseqBool_165 x_56326 x_56328) (x_56315 x_56325 x_56317 y_2392) (even_5 x_56326 x_56325) (x_56315 x_56327 y_2392 x_56317) (even_5 x_56328 x_56327)) false)))
(check-sat)
